p cnf 511 223
c ind 282 283 284 285 286 287 288 289 290 291 0
c ind 292 293 294 295 296 297 298 299 300 301 0
c ind 302 303 304 305 306 307 308 309 314 315 0
c ind 321 322 323 324 325 326 327 328 329 330 0
c ind 331 332 333 334 335 344 345 346 347 350 0
c ind 351 352 353 354 355 358 359 360 361 362 0
c ind 363 372 373 374 375 378 379 380 381 382 0
c ind 383 386 387 388 389 390 391 392 393 394 0
c ind 395 396 397 398 399 400 401 402 403 404 0
c ind 405 406 407 408 409 410 411 412 413 414 0
c ind 415 416 417 418 419 420 421 422 423 424 0
c ind 425 426 427 428 429 430 434 435 436 437 0
c ind 438 439 440 441 442 443 444 445 446 447 0
c ind 448 449 450 451 452 453 454 455 456 457 0
c ind 468 469 470 471 473 474 475 476 477 481 0
c ind 486 487 488 489 490 491 492 493 494 495 0
c ind 496 497 498 499 500 501 502 503 504 505 0
c ind 508 509 310 339 367 318 337 338 340 341 0
c ind 342 365 366 368 369 370 313 317 320 343 0
c ind 371 281 311 312 319 348 376 431 432 433 0
c ind 461 462 464 465 466 467 336 349 364 377 0
c ind 458 459 460 463 472 478 479 480 482 483 0
c ind 484 485 506 507 280 316 356 357 384 385 0
c ind 1 0
c ret 55 93 94 95 96 97 98 99 100 56 0
c ret 101 102 103 104 105 106 107 108 109 57 0
c ret 110 111 112 113 114 115 116 117 118 119 0
c ret 120 121 122 123 124 125 126 58 127 128 0
c ret 129 130 131 132 133 134 50 59 135 136 0
c ret 137 138 139 140 141 142 143 144 60 145 0
c ret 146 147 148 149 61 150 151 152 153 154 0
c ret 155 156 157 62 158 159 160 161 162 163 0
c ret 63 164 165 166 167 168 169 170 171 172 0
c ret 173 64 174 175 176 177 178 51 65 179 0
c ret 180 181 182 183 184 185 66 186 187 188 0
c ret 189 190 191 67 192 193 194 195 196 197 0
c ret 198 199 68 200 201 202 203 204 205 206 0
c ret 69 207 208 209 210 211 212 213 214 215 0
c ret 52 70 216 217 218 219 220 221 222 71 0
c ret 223 224 225 226 72 227 228 229 230 231 0
c ret 232 233 234 235 236 237 238 239 240 73 0
c ret 241 242 243 74 244 245 246 247 248 249 0
c ret 250 251 252 53 253 254 255 256 257 258 0
c ret 259 260 261 262 263 264 265 266 267 268 0
c ret 269 270 271 272 75 273 274 275 276 277 0
c ret 278 279 76 54 77 78 79 80 81 82 0
c ret 83 84 85 86 87 88 89 90 91 92 0
2 3 7 11 -47 0
-2 47 0
-2 -11 0
-2 -3 0
-2 -7 0
3 4 135 136 137 0
-3 -4 0
-3 -137 0
-3 -135 0
-3 -136 0
4 5 -140 0
4 5 6 -141 0
-4 -5 0
-4 -6 140 0
-4 140 141 0
5 138 -139 0
-5 -138 0
-5 139 0
6 146 147 0
6 146 154 155 0
-6 -146 0
-6 -147 -154 0
-6 -147 -155 0
7 8 107 108 109 0
-7 -8 0
-7 -109 0
-7 -107 0
-7 -108 0
8 9 -112 0
8 9 10 -113 0
-8 -9 0
-8 -10 112 0
-8 112 113 0
9 110 -111 0
-9 -110 0
-9 111 0
10 118 119 0
10 118 126 127 0
-10 -118 0
-10 -119 -126 0
-10 -119 -127 0
3 7 11 -12 -38 0
-11 38 0
-7 -11 0
-11 12 0
-3 -11 0
12 -13 -21 310 0
12 -13 -18 -21 0
-12 21 0
-12 13 0
-12 18 -310 0
13 14 80 0
13 14 15 -16 0
-13 -14 0
-13 16 -80 0
-13 -15 -80 0
14 -51 201 202 203 0
-14 -203 0
-14 -202 0
-14 51 0
-14 -201 0
15 86 89 90 0
-15 -86 0
-15 -90 0
-15 -89 0
16 17 -87 0
16 17 -88 0
16 17 86 0
-16 -17 0
-16 -86 87 88 0
17 -81 82 83 0
-17 81 0
-17 -83 0
-17 -82 0
18 -19 316 0
18 -19 -317 0
18 -19 -318 0
-18 19 0
-18 -316 317 318 0
19 20 -316 0
19 20 -319 0
19 20 -320 0
-19 -20 0
-19 316 319 320 0
20 -311 312 313 0
-20 311 0
-20 -313 0
-20 -312 0
21 -22 32 36 0
21 -22 32 35 0
-21 22 0
-21 -32 0
-21 -35 -36 0
22 -23 27 31 0
22 -23 27 30 0
-22 23 0
-22 -27 0
-22 -30 -31 0
23 24 -25 0
23 -25 -433 0
23 -25 -432 0
-23 25 0
-23 -24 432 433 0
24 -281 431 0
-24 281 0
-24 -431 0
25 -26 -280 -506 0
25 -26 280 -507 0
-25 26 0
-25 -280 506 0
-25 280 507 0
26 -106 -134 -336 -364 0
-26 364 0
-26 106 0
-26 336 0
-26 134 0
27 -28 -29 -249 250 0
-27 29 0
-27 249 0
-27 28 0
-27 -250 0
28 252 -253 -254 255 0
-28 -252 0
-28 -255 0
-28 254 0
-28 253 0
29 -242 -248 0
-29 242 0
-29 248 0
30 482 -483 -484 485 0
-30 -482 0
-30 -485 0
-30 484 0
-30 483 0
31 -472 -478 -479 480 0
-31 479 0
-31 -480 0
-31 472 0
-31 478 0
32 -33 -34 -231 0
32 -33 -34 -232 0
-32 34 0
-32 33 0
-32 231 232 0
33 234 235 236 237 0
-33 -237 0
-33 -236 0
-33 -234 0
-33 -235 0
34 -228 -229 -230 233 0
-34 230 0
-34 -233 0
-34 228 0
-34 229 0
35 464 465 466 467 0
-35 -467 0
-35 -466 0
-35 -464 0
-35 -465 0
36 -37 -462 0
36 -37 -461 0
-36 37 0
-36 461 462 0
37 -458 -459 -460 463 0
-37 460 0
-37 -463 0
-37 458 0
-37 459 0
38 39 46 0
38 39 -367 0
38 39 -43 0
-38 -39 0
-38 43 -46 367 0
39 40 337 338 339 0
-39 -40 0
-39 -339 0
-39 -337 0
-39 -338 0
40 41 -342 0
40 41 42 -343 0
-40 -41 0
-40 -42 342 0
-40 342 343 0
41 340 -341 0
-41 -340 0
-41 341 0
42 348 349 0
42 348 356 357 0
-42 -348 0
-42 -349 -356 0
-42 -349 -357 0
43 44 -370 0
43 44 45 -371 0
-43 -44 0
-43 -45 370 0
-43 370 371 0
44 368 -369 0
-44 -368 0
-44 369 0
45 376 377 0
45 376 384 385 0
-45 -376 0
-45 -377 -384 0
-45 -377 -385 0
46 365 366 0
-46 -365 0
-46 -366 0
-13 27 32 47 -48 0
-47 48 0
-32 -47 0
13 -47 0
-27 -47 0
48 -49 -50 -276 0
48 -49 50 -277 0
-48 49 0
-48 -50 276 0
-48 50 277 0
49 -106 -134 0
-49 106 0
-49 134 0
1 2 0
-1 -2 0
510 0

